Solver command line: ['C:\\Program Files\\IBM\\ILOG\\CPLEX_Studio2211\\cplex\\bin\\x64_win64\\cplex.exe']


Welcome to IBM(R) ILOG(R) CPLEX(R) Interactive Optimizer 22.1.1.0
  with Simplex, Mixed Integer & Barrier Optimizers
5725-A06 5725-A29 5724-Y48 5724-Y49 5724-Y54 5724-Y55 5655-Y21
Copyright IBM Corp. 1988, 2022.  All Rights Reserved.

Type 'help' for a list of available commands.
Type 'help' followed by a command name for more
information on commands.

CPLEX> Logfile 'cplex.log' closed.
Logfile 'C:\Users\wangy\Documents\GitHub\re_optimization\result_site_specific\tmpmwafbzof.cplex.log' open.
CPLEX> Problem 'C:\Users\wangy\Documents\GitHub\re_optimization\result_site_specific\tmps_46cjg6.pyomo.lp' read.
Read time = 0.22 sec. (7.29 ticks)
CPLEX> Problem name         : C:\Users\wangy\Documents\GitHub\re_optimization\result_site_specific\tmps_46cjg6.pyomo.lp
Objective sense      : Minimize
Variables            :   52617  [Nneg: 27764,  Free: 8786,  Binary: 7,
                                 Other: 16060]
Objective nonzeros   :      14
Linear constraints   :   73052  [Less: 39437,  Greater: 3,  Equal: 33612]
  Nonzeros           :  181271
  RHS nonzeros       :    3835

Variables            : Min LB: 0.000000         Max UB: 1.000000       
Objective nonzeros   : Min   : 1.000000         Max   : 1.000000       
Linear constraints   :
  Nonzeros           : Min   : 0.0008923256     Max   : 100000.0       
  RHS nonzeros       : Min   : 0.01100000       Max   : 1000.000       
CPLEX> Version identifier: 22.1.1.0 | 2022-11-27 | 9160aff4d
Tried aggregator 3 times.
MIP Presolve eliminated 48443 rows and 29464 columns.
Aggregator did 7539 substitutions.
Reduced MIP has 17070 rows, 15614 columns, and 49604 nonzeros.
Reduced MIP has 5 binaries, 0 generals, 0 SOSs, and 0 indicators.
Presolve time = 0.12 sec. (151.93 ticks)
Found incumbent of value 225897.035948 after 0.17 sec. (176.32 ticks)
Probing time = 0.00 sec. (0.94 ticks)
Tried aggregator 1 time.
Detecting symmetries...
Reduced MIP has 17070 rows, 15614 columns, and 49604 nonzeros.
Reduced MIP has 5 binaries, 0 generals, 0 SOSs, and 0 indicators.
Presolve time = 0.03 sec. (29.28 ticks)
Probing time = 0.02 sec. (0.86 ticks)
MIP emphasis: balance optimality and feasibility.
MIP search method: dynamic search.
Parallel mode: deterministic, using up to 16 threads.
Root relaxation solution time = 0.59 sec. (520.10 ticks)

        Nodes                                         Cuts/
   Node  Left     Objective  IInf  Best Integer    Best Bound    ItCnt     Gap

*     0+    0                       225897.0359   -18292.3493           108.10%
*     0+    0                        15930.8054   -18292.3493           214.82%
      0     0    14373.6602     1    15930.8054    14373.6602       59    9.77%
*     0+    0                        15930.7789    14373.6602             9.77%
      0     0        cutoff          15930.7789                    462    0.00%
Elapsed time = 0.97 sec. (928.26 ticks, tree = 0.01 MB, solutions = 3)

Root node processing (before b&c):
  Real time             =    0.99 sec. (930.74 ticks)
Parallel b&c, 16 threads:
  Real time             =    0.00 sec. (0.00 ticks)
  Sync time (average)   =    0.00 sec.
  Wait time (average)   =    0.00 sec.
                          ------------
Total (root+branch&cut) =    0.99 sec. (930.74 ticks)

Solution pool: 3 solutions saved.

MIP - Integer optimal solution:  Objective =  1.5930778864e+04
Solution time =    0.99 sec.  Iterations = 462  Nodes = 0
Deterministic time = 930.89 ticks  (945.07 ticks/sec)

CPLEX> Incumbent solution written to file 'C:\Users\wangy\Documents\GitHub\re_optimization\result_site_specific\tmpa3rnv5if.cplex.sol'.
CPLEX> 
